p cnf 10 30
10 9 -4 0
-10 -8 -7 0
10 7 -5 0
10 -7 5 0
10 -7 -3 0
10 -7 1 0
10 -6 3 0
10 3 -2 0
-10 2 -1 0
9 8 -7 0
9 -7 6 0
9 -7 -2 0
-9 -4 -2 0
8 -7 5 0
-8 7 -3 0
8 -7 -2 0
-8 -7 1 0
8 6 -5 0
-8 -6 -4 0
-8 -5 4 0
8 -3 -2 0
8 3 -1 0
-7 5 4 0
7 4 -2 0
-7 4 -1 0
7 3 2 0
-6 5 -3 0
6 -4 -2 0
-5 4 3 0
5 -4 -1 0
